(declare-const |havoc:3:24:326| Int)
(declare-const havoc Int)
(declare-const |return':304:318:328| Int)
(declare-const |param0':305:317:327| Int)
(declare-const |param1':306:319:329| Int)
(assert (and (<= (- havoc) 0) (<= (+ havoc -1073741823) 0)
               (<= (- |havoc:3:24:326|) 0)
               (<= (+ |havoc:3:24:326| -1073741823) 0)
               (= (+ |param0':305:317:327| (- |havoc:3:24:326|) (- havoc)) 0)
               (= (+ |return':304:318:328| (- |havoc:3:24:326|) (- havoc)) 0)
               (= |param1':306:319:329| 0)
               (not (= (+ |return':304:318:328| |havoc:3:24:326| (- havoc)) 0))))
(check-sat)
